instances/benchmark/p1_15_20-3.dzn
Alphabet = {A,C,G,T};
ns = 15;
nc = 20;
sl = 10;
neighbours = [| I(C),I(A),I(A),I(A),I(A),I(A),I(A),I(C),I(G),I(G),I(A),I(C),I(A),I(C),I(C),I(A),I(A),I(A),I(A),I(A) | I(G),I(C),I(C),I(A),I(A),I(A),I(A),I(A),I(C),I(A),I(C),I(A),I(A),I(A),I(A),I(A),I(A),I(A),I(A),I(A) | I(A),I(A),I(A),I(A),I(A),I(A),I(A),I(A),I(C),I(C),I(A),I(A),I(A),I(C),I(C),I(A),I(C),I(C),I(A),I(A) | I(C),I(A),I(C),I(A),I(A),I(C),I(C),I(A),I(C),I(A),I(A),I(A),I(C),I(A),I(A),I(A),I(A),I(A),I(A),I(A) | I(A),I(A),I(C),I(A),I(C),I(A),I(A),I(A),I(C),I(A),I(A),I(C),I(A),I(A),I(A),I(C),I(A),I(A),I(A),I(A) | I(A),I(A),I(C),I(A),I(A),I(A),I(A),I(A),I(C),I(C),I(A),I(A),I(A),I(C),I(C),I(C),I(A),I(A),I(A),I(C) | I(A),I(C),I(C),I(C),I(A),I(A),I(A),I(A),I(A),I(C),I(A),I(G),I(A),I(A),I(A),I(A),I(A),I(A),I(C),I(A) | I(A),I(C),I(C),I(C),I(A),I(C),I(A),I(A),I(A),I(A),I(C),I(A),I(A),I(C),I(A),I(C),I(A),I(A),I(C),I(A) | I(A),I(A),I(A),I(A),I(A),I(A),I(A),I(A),I(C),I(A),I(A),I(C),I(C),I(C),I(T),I(G),I(C),I(A),I(C),I(A) | I(G),I(A),I(A),I(C),I(A),I(A),I(C),I(A),I(A),I(C),I(A),I(C),I(C),I(A),I(A),I(A),I(C),I(A),I(A),I(A) | I(C),I(C),I(A),I(A),I(A),I(A),I(A),I(A),I(A),I(C),I(A),I(A),I(A),I(A),I(C),I(A),I(A),I(A),I(C),I(C) | I(A),I(C),I(A),I(A),I(C),I(C),I(A),I(A),I(A),I(A),I(A),I(A),I(A),I(C),I(A),I(A),I(A),I(A),I(A),I(G) | I(G),I(A),I(C),I(A),I(C),I(A),I(C),I(A),I(A),I(A),I(A),I(A),I(A),I(A),I(C),I(A),I(A),I(C),I(A),I(A) | I(A),I(C),I(A),I(A),I(C),I(A),I(C),I(A),I(C),I(C),I(C),I(A),I(A),I(A),I(C),I(A),I(G),I(C),I(A),I(A) | I(A),I(A),I(A),I(A),I(A),I(C),I(A),I(A),I(A),I(C),I(A),I(A),I(C),I(C),I(A),I(C),I(C),I(A),I(C),I(A) |];
