instances/p1/p1_15_20-3.txt
{
	"num_strings": 15,
	"alphabet": "ACGT",
	"strings": [
		"CAAAAAACGGACACCAAAAA",
		"GCCAAAAACACAAAAAAAAA",
		"AAAAAAAACCAAACCACCAA",
		"CACAACCACAAACAAAAAAA",
		"AACACAAACAACAAACAAAA",
		"AACAAAAACCAAACCCAAAC",
		"ACCCAAAAACAGAAAAAACA",
		"ACCCACAAAACAACACAACA",
		"AAAAAAAACAACCCTGCACA",
		"GAACAACAACACCAAACAAA",
		"CCAAAAAAACAAAACAAACC",
		"ACAACCAAAAAAACAAAAAG",
		"GACACACAAAAAAACAACAA",
		"ACAACACACCCAAACAGCAA",
		"AAAAACAAACAACCACCACA"
	],
	"str_length":[20,20,20,20,20,20,20,20,20,20,20,20,20,20,20]
}